n = 100;
C = 540;
w = [352,962,151,726,674,855,474,763,540,334,461,666,121,157,958,835,645,861,225,482,955,422,652,161,708,705,51,290,743,620,30,790,388,930,382,281,24,360,980,51,124,601,890,216,165,379,599,809,166,880,575,665,857,942,361,633,506,583,560,493,581,937,979,52,834,583,948,492,864,670,125,188,543,369,462,480,149,494,672,152,218,375,461,393,955,906,414,771,963,609,116,617,69,875,767,820,108,985,962,313];
p = [600,303,459,966,172,963,533,758,79,678,766,955,600,485,575,228,180,114,15,975,812,75,208,297,765,2,514,479,783,859,152,464,543,785,935,752,582,722,410,71,943,678,856,928,693,324,147,11,362,140,179,163,889,510,546,673,413,290,838,583,247,558,674,725,333,684,580,831,861,960,200,757,230,798,148,482,88,994,947,830,871,439,450,284,188,577,294,581,779,218,115,107,414,209,662,846,256,574,901,882];
